row=6;
column=6;
left=[7, 0, 20, 6, 0, 0];
right=[15, 0, 0, 18, 12, 0];
top=[0, 6, 11, 16, 14, 10];
bottom=[0, 15, 0, 0, 12, 0];
Board=[|0,0,0,0,0,0|0,0,0,0,0,0|0,0,0,0,0,0|0,0,0,0,0,0|0,0,0,0,0,0|0,0,0,0,0,0|]